NAME : portcgen-15-70
COMMENT : portcgen N=15, seed=70
TYPE : TSP
DIMENSION : 15
EDGE_WEIGHT_TYPE : EUC_2D
NODE_COORD_SECTION
1 53 56
2 96 107
3 87 71
4 67 99
5 81 83
6 71 78
7 88 82
8 66 70
9 61 101
10 82 107
11 61 79
12 76 132
13 52 57
14 76 78
15 70 84
